2
150 150
100
21 27 1
21 75 1
22 50 1
22 60 1
22 81 1
23 30 1
23 57 1
23 87 1
24 46 1
24 68 1
26 54 1
26 74 1
28 29 1
28 41 1
28 44 1
28 46 1
29 49 1
32 97 1
35 29 1
35 94 1
36 54 1
36 58 1
37 35 1
38 24 1
38 28 1
38 31 1
38 73 1
39 40 1
40 62 1
40 77 1
42 82 1
45 21 1
45 49 1
45 67 1
47 62 1
48 55 1
48 98 1
49 81 1
49 87 1
50 49 1
52 82 1
53 47 1
53 74 1
54 78 1
54 92 1
54 93 1
56 59 1
56 66 1
56 89 1
57 42 1
57 64 1
57 76 1
57 92 1
61 45 1
62 36 1
62 70 1
65 30 1
65 56 1
66 20 1
66 66 1
67 21 1
67 94 1
68 31 1
68 81 1
73 36 1
73 45 1
74 86 1
77 34 1
77 55 1
77 64 1
77 66 1
78 67 1
78 69 1
80 48 1
80 97 1
81 47 1
81 55 1
82 55 1
82 58 1
83 88 1
84 44 1
84 72 1
85 30 1
85 55 1
86 72 1
87 78 1
87 94 1
89 65 1
89 80 1
89 86 1
89 91 1
91 30 1
91 74 1
93 39 1
93 63 1
94 37 1
95 77 1
97 60 1
97 69 1
99 68 1
